% Generado automaticamente desde C:/Users/andres/Desktop/SEPTIMO SEMESTRE/ADAII/proyecto_final/Proyecto-Optimizacion-ADA2/BateriaPruebas_2025_2_P2-txt/Prueba34.txt

n = 25;
m = 5;
ct = 50.0;
maxMovs = 25.0;
v = [0.0, 0.031, 0.215, 0.406, 0.495];
p = [8, 2, 6, 2, 7];
s = [| 1, 3, 4 | 0, 1, 1 | 1, 4, 1 | 0, 2, 0 | 7, 0, 0 |];
